20
0 1 0.73 0.18
0 2 0.6 0.36
0 3 0.58 0.38
0 4 0.64 0.34
0 5 0.7 0.28
0 6 0.58 0.18
0 7 0.72 0.38
0 8 0.68 0.26
0 9 0.72 0.38
0 10 0.58 0.24
0 11 0.34 0.28
0 12 0.58 0.22
0 13 0.48 0.42
0 14 0.32 0.28
0 15 0.7 0.32
0 16 0.4 0.34
0 17 0.58 0.28
0 18 0.48 0.12
0 19 0.62 0.33
1 2 0.67 0.26
1 3 0.7 0.32
1 4 0.38 0.24
1 5 0.16 0.13
1 6 0.26 0.1
1 7 0.74 0.22
1 8 0.31 0.18
1 9 0.58 0.33
1 10 0.49 0.26
1 11 0.6 0.18
1 12 0.47 0.22
1 13 0.52 0.32
1 14 0.72 0.28
1 15 0.37 0.14
1 16 0.58 0.2
1 17 0.43 0.25
1 18 0.68 0.3
1 19 0.48 0.3
2 3 0.5 0.38
2 4 0.62 0.28
2 5 0.69 0.16
2 6 0.46 0.26
2 7 0.74 0.25
2 8 0.36 0.34
2 9 0.14 0.07
2 10 0.68 0.12
2 11 0.52 0.3
2 12 0.56 0.23
2 13 0.72 0.33
2 14 0.36 0.17
2 15 0.62 0.33
2 16 0.62 0.35
2 17 0.64 0.28
2 18 0.67 0.24
2 19 0.54 0.22
3 4 0.32 0.2
3 5 0.76 0.22
3 6 0.6 0.26
3 7 0.4 0.26
3 8 0.61 0.28
3 9 0.64 0.38
3 10 0.6 0.42
3 11 0.41 0.14
3 12 0.6 0.24
3 13 0.52 0.18
3 14 0.79 0.31
3 15 0.49 0.18
3 16 0.72 0.24
3 17 0.76 0.34
3 18 0.48 0.38
3 19 0.91 0.26
4 5 0.49 0.18
4 6 0.64 0.28
4 7 0.5 0.18
4 8 0.69 0.26
4 9 0.48 0.33
4 10 0.42 0.29
4 11 0.42 0.06
4 12 0.48 0.19
4 13 0.4 0.16
4 14 0.74 0.11
4 15 0.74 0.1
4 16 0.54 0.16
4 17 0.76 0.27
4 18 0.7 0.24
4 19 0.71 0.06
5 6 0.38 0.1
5 7 0.64 0.3
5 8 0.47 0.18
5 9 0.55 0.23
5 10 0.65 0.26
5 11 0.46 0.2
5 12 0.31 0.14
5 13 0.36 0.22
5 14 0.57 0.24
5 15 0.53 0.24
5 16 0.42 0.3
5 17 0.27 0.12
5 18 0.52 0.28
5 19 0.56 0.24
6 7 0.48 0.2
6 8 0.22 0.08
6 9 0.32 0.29
6 10 0.44 0.16
6 11 0.66 0.23
6 12 0.47 0.13
6 13 0.74 0.28
6 14 0.72 0.18
6 15 0.34 0.19
6 16 0.54 0.25
6 17 0.47 0.22
6 18 0.72 0.27
6 19 0.74 0.23
7 8 0.6 0.12
7 9 0.61 0.32
7 10 0.6 0.34
7 11 0.56 0.12
7 12 0.5 0.24
7 13 0.66 0.26
7 14 0.54 0.14
7 15 0.61 0.08
7 16 0.32 0.14
7 17 0.86 0.3
7 18 0.46 0.35
7 19 0.6 0.19
8 9 0.5 0.37
8 10 0.53 0.24
8 11 0.46 0.2
8 12 0.5 0.21
8 13 0.8 0.2
8 14 0.54 0.26
8 15 0.37 0.16
8 16 0.32 0.18
8 17 0.48 0.3
8 18 0.67 0.23
8 19 0.66 0.31
9 10 0.64 0.19
9 11 0.64 0.33
9 12 0.42 0.16
9 13 0.58 0.26
9 14 0.5 0.24
9 15 0.66 0.29
9 16 0.6 0.28
9 17 0.5 0.35
9 18 0.53 0.3
9 19 0.68 0.29
10 11 0.82 0.34
10 12 0.52 0.29
10 13 0.4 0.24
10 14 0.74 0.29
10 15 0.51 0.3
10 16 0.7 0.36
10 17 0.67 0.26
10 18 0.54 0.28
10 19 0.44 0.34
11 12 0.54 0.22
11 13 0.56 0.14
11 14 0.66 0.17
11 15 0.7 0.04
11 16 0.72 0.1
11 17 0.58 0.32
11 18 0.7 0.3
11 19 0.5 0.12
12 13 0.67 0.35
12 14 0.26 0.1
12 15 0.6 0.18
12 16 0.18 0.16
12 17 0.58 0.26
12 18 0.83 0.14
12 19 0.56 0.15
13 14 0.72 0.27
13 15 0.54 0.18
13 16 0.66 0.24
13 17 0.63 0.34
13 18 0.52 0.4
13 19 0.62 0.22
14 15 0.38 0.21
14 16 0.44 0.26
14 17 0.46 0.16
14 18 0.72 0.24
14 19 0.32 0.05
15 16 0.69 0.06
15 17 0.61 0.36
15 18 0.71 0.32
15 19 0.48 0.16
16 17 0.69 0.42
16 18 0.78 0.3
16 19 0.38 0.22
17 18 0.55 0.16
17 19 0.52 0.21
18 19 0.65 0.29
